p tw 99 256
0 1
0 2
0 77
0 81
1 2
1 84
2 40
2 41
2 42
2 43
3 4
3 5
3 19
3 20
3 21
4 5
4 30
4 53
4 54
4 55
5 66
5 75
6 7
6 8
6 9
6 15
6 25
6 72
6 73
7 8
7 9
7 48
8 9
8 13
9 14
10 11
10 12
10 37
10 67
10 70
11 12
11 36
11 68
11 71
11 96
12 69
12 84
13 14
13 15
14 15
15 25
15 72
15 73
16 17
16 18
16 33
16 52
17 18
17 27
17 35
17 44
18 32
18 62
18 77
18 78
19 20
19 21
19 39
19 46
19 91
19 92
20 21
20 57
20 75
20 94
20 97
21 38
21 45
21 89
21 90
22 23
22 24
22 25
22 26
22 27
22 28
22 29
23 24
23 25
23 44
23 47
23 61
23 98
24 25
24 55
24 86
25 72
25 73
26 27
26 28
26 29
26 98
27 28
27 29
27 35
27 44
28 29
28 61
29 47
30 31
30 32
30 53
30 54
30 55
31 32
31 63
31 85
32 62
32 77
32 78
33 34
33 35
33 36
33 37
33 52
34 35
34 36
34 37
34 74
35 36
35 37
35 44
36 37
36 68
36 71
36 96
37 67
37 70
38 39
38 45
38 89
38 90
39 46
39 91
39 92
40 41
40 42
40 43
40 49
40 50
40 51
41 42
41 43
41 60
41 83
42 43
42 82
43 81
43 89
43 92
44 47
44 61
44 98
45 46
45 89
45 90
46 91
46 92
47 61
47 98
48 72
49 50
49 51
49 60
50 51
50 83
51 82
52 67
52 68
52 69
53 54
53 55
53 78
53 85
54 55
54 62
54 63
55 86
56 57
56 58
56 59
56 87
56 88
57 58
57 59
57 75
57 94
57 97
58 59
58 64
58 65
58 66
59 76
60 83
61 98
62 63
62 77
62 78
63 85
64 65
64 66
64 76
64 87
64 95
64 97
65 66
65 80
65 88
66 75
67 68
67 69
67 70
68 69
68 71
68 96
69 84
70 71
71 96
72 73
73 79
73 86
74 96
75 94
75 97
76 87
76 95
76 97
77 78
77 81
78 85
79 80
79 86
80 88
81 89
81 92
87 88
87 95
87 97
89 90
89 92
90 91
91 92
93 94
93 95
94 97
95 97
